c nombre: 26
c densidad: 0.3
p edges 40 251
e 1 10
e 1 15
e 1 20
e 1 25
e 1 28
e 1 31
e 1 32
e 1 33
e 1 35
e 1 39
e 1 40
e 2 3
e 2 8
e 2 14
e 2 16
e 2 18
e 2 21
e 2 23
e 2 27
e 2 29
e 2 35
e 2 37
e 3 10
e 3 11
e 3 15
e 3 16
e 3 20
e 3 23
e 3 24
e 3 25
e 3 30
e 3 40
e 4 5
e 4 6
e 4 11
e 4 21
e 4 27
e 4 29
e 4 30
e 4 31
e 4 33
e 4 36
e 5 8
e 5 9
e 5 14
e 5 17
e 5 19
e 5 21
e 5 26
e 5 29
e 5 32
e 5 35
e 5 37
e 5 38
e 5 40
e 6 9
e 6 11
e 6 13
e 6 14
e 6 15
e 6 21
e 6 22
e 6 24
e 6 27
e 6 29
e 6 32
e 6 33
e 6 34
e 6 37
e 6 40
e 7 10
e 7 13
e 7 14
e 7 18
e 7 21
e 7 22
e 7 25
e 7 27
e 7 29
e 7 31
e 7 32
e 7 39
e 8 12
e 8 13
e 8 22
e 8 29
e 8 31
e 8 35
e 8 38
e 9 10
e 9 13
e 9 14
e 9 15
e 9 19
e 9 20
e 9 24
e 9 25
e 9 31
e 9 32
e 9 33
e 9 37
e 9 39
e 10 16
e 10 22
e 10 26
e 10 30
e 10 31
e 10 34
e 11 12
e 11 13
e 11 15
e 11 20
e 11 21
e 11 29
e 11 37
e 11 39
e 11 40
e 12 16
e 12 20
e 12 22
e 12 23
e 12 24
e 12 25
e 12 26
e 12 28
e 12 31
e 13 14
e 13 15
e 13 17
e 13 19
e 13 20
e 13 23
e 13 31
e 13 33
e 14 25
e 14 26
e 14 27
e 14 28
e 14 32
e 14 33
e 14 34
e 15 18
e 15 19
e 15 20
e 15 21
e 15 30
e 15 34
e 15 35
e 15 36
e 16 24
e 16 27
e 16 29
e 16 30
e 16 32
e 16 35
e 16 36
e 16 40
e 17 20
e 17 22
e 17 26
e 17 35
e 17 36
e 17 37
e 18 19
e 18 20
e 18 23
e 18 24
e 18 25
e 18 26
e 18 27
e 18 29
e 18 31
e 18 33
e 19 21
e 19 23
e 19 24
e 19 31
e 19 32
e 19 34
e 19 35
e 19 36
e 19 37
e 19 38
e 20 21
e 20 22
e 20 23
e 20 30
e 20 37
e 20 38
e 21 22
e 21 25
e 21 28
e 21 29
e 21 32
e 21 33
e 21 38
e 21 40
e 22 26
e 22 27
e 22 34
e 22 36
e 22 37
e 22 40
e 23 28
e 23 29
e 23 33
e 23 37
e 23 38
e 23 39
e 24 25
e 24 27
e 24 28
e 24 29
e 25 27
e 25 31
e 25 33
e 25 35
e 25 38
e 25 40
e 26 32
e 26 33
e 26 34
e 26 40
e 27 29
e 27 34
e 27 36
e 27 39
e 28 29
e 28 30
e 28 34
e 28 36
e 29 31
e 30 33
e 30 35
e 30 37
e 31 34
e 31 36
e 31 37
e 31 39
e 32 34
e 33 34
e 33 35
e 33 38
e 34 35
e 34 38
e 34 40
e 35 37
e 35 40
e 37 38
e 37 39
e 38 40
